
Gurobi 11.0.1 (win64) logging started Mon May 13 15:40:54 2024

Set parameter LogFile to value "output/solver_log25.txt"
Gurobi Optimizer version 11.0.1 build v11.0.1rc0 (win64 - Windows 11.0 (22631.2))

CPU model: 11th Gen Intel(R) Core(TM) i7-1165G7 @ 2.80GHz, instruction set [SSE2|AVX|AVX2|AVX512]
Thread count: 4 physical cores, 8 logical processors, using up to 8 threads

Optimize a model with 2700 rows, 645 columns and 49911 nonzeros
Model fingerprint: 0xbfff854c
Variable types: 248 continuous, 397 integer (397 binary)
Coefficient statistics:
  Matrix range     [4e-01, 1e+05]
  Objective range  [1e+00, 1e+02]
  Bounds range     [1e+00, 1e+00]
  RHS range        [1e-02, 1e+05]

User MIP start produced solution with objective 75984.2 (0.01s)
User MIP start produced solution with objective 75984.2 (0.02s)
Loaded user MIP start with objective 75984.2

Presolve removed 257 rows and 234 columns
Presolve time: 0.09s
Presolved: 2443 rows, 411 columns, 47368 nonzeros
Variable types: 228 continuous, 183 integer (180 binary)

Root relaxation: objective 7.634321e+04, 612 iterations, 0.07 seconds (0.08 work units)

    Nodes    |    Current Node    |     Objective Bounds      |     Work
 Expl Unexpl |  Obj  Depth IntInf | Incumbent    BestBd   Gap | It/Node Time

     0     0 76343.2144    0   15 75984.1762 76343.2144  0.47%     -    0s
     0     0 76272.2029    0   29 75984.1762 76272.2029  0.38%     -    0s
     0     0 76272.1976    0   12 75984.1762 76272.1976  0.38%     -    0s
     0     0 76268.7212    0   10 75984.1762 76268.7212  0.37%     -    0s
     0     2 76268.7212    0   10 75984.1762 76268.7212  0.37%     -    0s
  3334   656 76040.7459   38    3 75984.1762 76099.2533  0.15%  16.5    5s
  9981  1494 76040.7459   28   11 75984.1762 76099.2533  0.15%  16.4   10s
 18234  2576 76099.2508   51    6 75984.1762 76099.2533  0.15%  16.0   15s
 23892  3131 infeasible   46      75984.1762 76099.2533  0.15%  16.0   20s
 32259  4115 76099.2472   44    6 75984.1762 76099.2533  0.15%  15.9   25s
 38386  4935 infeasible   44      75984.1762 76099.2532  0.15%  16.0   30s
 43446  5605 infeasible   45      75984.1762 76099.2532  0.15%  16.2   35s
 51367  6651 76099.2532   43    1 75984.1762 76099.2532  0.15%  16.6   40s
 58686  7551 infeasible   40      75984.1762 76099.2532  0.15%  16.8   45s
 67024  8609 76099.2494   45    8 75984.1762 76099.2531  0.15%  16.8   50s
 75020  9342 76099.2530   47    1 75984.1762 76099.2530  0.15%  16.8   55s
 80954  9579 infeasible   71      75984.1762 76099.2518  0.15%  16.8   60s

Explored 81419 nodes (1371405 simplex iterations) in 60.02 seconds (116.37 work units)
Thread count was 8 (of 8 available processors)

Solution count 2: 75984.2 75984.2 

Time limit reached
Best objective 7.598417616126e+04, best bound 7.609925181184e+04, gap 0.1514%
